
(set-option :produce-models true)
(set-option :inline-size-limit 10000)

(declare-const var0 String)

(push 1)
(assert (str.in.re var0 (re.* (re.range "\x01" "\xff"))))
(assert (str.in.re var0 (re.++ (re.*? re.allchar) (re.++ (re.++ ((_ re.capture 1) (re.union (re.union (re.union (re.union (re.union (re.union (re.union (re.union (re.union (re.union (re.union (re.++ (re.union (str.to.re "A") (re.union (str.to.re "E") (re.union (str.to.re "H") (re.union (str.to.re "K") (re.union (str.to.re "L") (re.union (str.to.re "T") (str.to.re "Y"))))))) (re.union (str.to.re "A") (re.union (str.to.re "B") (re.union (str.to.re "E") (re.union (str.to.re "H") (re.union (str.to.re "K") (re.union (str.to.re "L") (re.union (str.to.re "M") (re.union (str.to.re "P") (re.union (str.to.re "R") (re.union (str.to.re "S") (re.union (str.to.re "T") (re.union (str.to.re "W") (re.union (str.to.re "X") (re.union (str.to.re "Y") (str.to.re "Z")))))))))))))))) (re.++ (str.to.re "B") (re.union (str.to.re "A") (re.union (str.to.re "B") (re.union (str.to.re "E") (re.union (str.to.re "H") (re.union (str.to.re "K") (re.union (str.to.re "L") (re.union (str.to.re "M") (str.to.re "T")))))))))) (re.++ (str.to.re "C") (re.union (str.to.re "A") (re.union (str.to.re "B") (re.union (str.to.re "E") (re.union (str.to.re "H") (re.union (str.to.re "K") (re.union (str.to.re "L") (str.to.re "R"))))))))) (re.++ (str.to.re "G") (str.to.re "Y"))) (re.++ (re.union (str.to.re "J") (str.to.re "S")) (re.union (str.to.re "A") (re.union (str.to.re "B") (re.union (str.to.re "C") (re.union (str.to.re "E") (re.union (str.to.re "G") (re.union (str.to.re "H") (re.union (str.to.re "J") (re.union (str.to.re "K") (re.union (str.to.re "L") (re.union (str.to.re "M") (re.union (str.to.re "N") (re.union (str.to.re "P") (re.union (str.to.re "R") (re.union (str.to.re "S") (re.union (str.to.re "T") (re.union (str.to.re "W") (re.union (str.to.re "X") (re.union (str.to.re "Y") (str.to.re "Z"))))))))))))))))))))) (re.++ (str.to.re "M") (re.union (str.to.re "A") (re.union (str.to.re "W") (str.to.re "X"))))) (re.++ (str.to.re "N") (re.union (str.to.re "A") (re.union (str.to.re "B") (re.union (str.to.re "E") (re.union (str.to.re "H") (re.union (str.to.re "L") (re.union (str.to.re "M") (re.union (str.to.re "P") (re.union (str.to.re "R") (re.union (str.to.re "S") (re.union (str.to.re "W") (re.union (str.to.re "X") (re.union (str.to.re "Y") (str.to.re "Z"))))))))))))))) (re.++ (str.to.re "O") (re.union (str.to.re "A") (re.union (str.to.re "B") (re.union (str.to.re "E") (re.union (str.to.re "H") (re.union (str.to.re "K") (re.union (str.to.re "L") (re.union (str.to.re "M") (re.union (str.to.re "P") (re.union (str.to.re "R") (re.union (str.to.re "S") (str.to.re "X"))))))))))))) (re.++ (str.to.re "P") (re.union (str.to.re "A") (re.union (str.to.re "B") (re.union (str.to.re "C") (re.union (str.to.re "E") (re.union (str.to.re "G") (re.union (str.to.re "H") (re.union (str.to.re "J") (re.union (str.to.re "K") (re.union (str.to.re "L") (re.union (str.to.re "M") (re.union (str.to.re "N") (re.union (str.to.re "P") (re.union (str.to.re "R") (re.union (str.to.re "S") (re.union (str.to.re "T") (re.union (str.to.re "W") (re.union (str.to.re "X") (str.to.re "Y")))))))))))))))))))) (re.++ (str.to.re "R") (re.union (str.to.re "A") (re.union (str.to.re "B") (re.union (str.to.re "E") (re.union (str.to.re "H") (re.union (str.to.re "K") (re.union (str.to.re "M") (re.union (str.to.re "P") (re.union (str.to.re "R") (re.union (str.to.re "S") (re.union (str.to.re "T") (re.union (str.to.re "W") (re.union (str.to.re "X") (re.union (str.to.re "Y") (str.to.re "Z")))))))))))))))) (re.++ (str.to.re "W") (re.union (str.to.re "A") (re.union (str.to.re "B") (re.union (str.to.re "E") (re.union (str.to.re "K") (re.union (str.to.re "L") (re.union (str.to.re "M") (str.to.re "P"))))))))) (re.++ (str.to.re "Z") (re.union (str.to.re "A") (re.union (str.to.re "B") (re.union (str.to.re "E") (re.union (str.to.re "H") (re.union (str.to.re "K") (re.union (str.to.re "L") (re.union (str.to.re "M") (re.union (str.to.re "P") (re.union (str.to.re "R") (re.union (str.to.re "S") (re.union (str.to.re "T") (re.union (str.to.re "W") (re.union (str.to.re "X") (str.to.re "Y"))))))))))))))))) (re.++ ((_ re.loop 0 6) (re.range "0" "9")) (re.opt (re.range "A" "D")))) re.all))))	; match!==null
(assert (not (str.in.re ((_ str.extract 1) var0 (re.++ (re.*? re.allchar) (re.++ (re.++ ((_ re.capture 1) (re.union (re.union (re.union (re.union (re.union (re.union (re.union (re.union (re.union (re.union (re.union (re.++ (re.union (str.to.re "A") (re.union (str.to.re "E") (re.union (str.to.re "H") (re.union (str.to.re "K") (re.union (str.to.re "L") (re.union (str.to.re "T") (str.to.re "Y"))))))) (re.union (str.to.re "A") (re.union (str.to.re "B") (re.union (str.to.re "E") (re.union (str.to.re "H") (re.union (str.to.re "K") (re.union (str.to.re "L") (re.union (str.to.re "M") (re.union (str.to.re "P") (re.union (str.to.re "R") (re.union (str.to.re "S") (re.union (str.to.re "T") (re.union (str.to.re "W") (re.union (str.to.re "X") (re.union (str.to.re "Y") (str.to.re "Z")))))))))))))))) (re.++ (str.to.re "B") (re.union (str.to.re "A") (re.union (str.to.re "B") (re.union (str.to.re "E") (re.union (str.to.re "H") (re.union (str.to.re "K") (re.union (str.to.re "L") (re.union (str.to.re "M") (str.to.re "T")))))))))) (re.++ (str.to.re "C") (re.union (str.to.re "A") (re.union (str.to.re "B") (re.union (str.to.re "E") (re.union (str.to.re "H") (re.union (str.to.re "K") (re.union (str.to.re "L") (str.to.re "R"))))))))) (re.++ (str.to.re "G") (str.to.re "Y"))) (re.++ (re.union (str.to.re "J") (str.to.re "S")) (re.union (str.to.re "A") (re.union (str.to.re "B") (re.union (str.to.re "C") (re.union (str.to.re "E") (re.union (str.to.re "G") (re.union (str.to.re "H") (re.union (str.to.re "J") (re.union (str.to.re "K") (re.union (str.to.re "L") (re.union (str.to.re "M") (re.union (str.to.re "N") (re.union (str.to.re "P") (re.union (str.to.re "R") (re.union (str.to.re "S") (re.union (str.to.re "T") (re.union (str.to.re "W") (re.union (str.to.re "X") (re.union (str.to.re "Y") (str.to.re "Z"))))))))))))))))))))) (re.++ (str.to.re "M") (re.union (str.to.re "A") (re.union (str.to.re "W") (str.to.re "X"))))) (re.++ (str.to.re "N") (re.union (str.to.re "A") (re.union (str.to.re "B") (re.union (str.to.re "E") (re.union (str.to.re "H") (re.union (str.to.re "L") (re.union (str.to.re "M") (re.union (str.to.re "P") (re.union (str.to.re "R") (re.union (str.to.re "S") (re.union (str.to.re "W") (re.union (str.to.re "X") (re.union (str.to.re "Y") (str.to.re "Z"))))))))))))))) (re.++ (str.to.re "O") (re.union (str.to.re "A") (re.union (str.to.re "B") (re.union (str.to.re "E") (re.union (str.to.re "H") (re.union (str.to.re "K") (re.union (str.to.re "L") (re.union (str.to.re "M") (re.union (str.to.re "P") (re.union (str.to.re "R") (re.union (str.to.re "S") (str.to.re "X"))))))))))))) (re.++ (str.to.re "P") (re.union (str.to.re "A") (re.union (str.to.re "B") (re.union (str.to.re "C") (re.union (str.to.re "E") (re.union (str.to.re "G") (re.union (str.to.re "H") (re.union (str.to.re "J") (re.union (str.to.re "K") (re.union (str.to.re "L") (re.union (str.to.re "M") (re.union (str.to.re "N") (re.union (str.to.re "P") (re.union (str.to.re "R") (re.union (str.to.re "S") (re.union (str.to.re "T") (re.union (str.to.re "W") (re.union (str.to.re "X") (str.to.re "Y")))))))))))))))))))) (re.++ (str.to.re "R") (re.union (str.to.re "A") (re.union (str.to.re "B") (re.union (str.to.re "E") (re.union (str.to.re "H") (re.union (str.to.re "K") (re.union (str.to.re "M") (re.union (str.to.re "P") (re.union (str.to.re "R") (re.union (str.to.re "S") (re.union (str.to.re "T") (re.union (str.to.re "W") (re.union (str.to.re "X") (re.union (str.to.re "Y") (str.to.re "Z")))))))))))))))) (re.++ (str.to.re "W") (re.union (str.to.re "A") (re.union (str.to.re "B") (re.union (str.to.re "E") (re.union (str.to.re "K") (re.union (str.to.re "L") (re.union (str.to.re "M") (str.to.re "P"))))))))) (re.++ (str.to.re "Z") (re.union (str.to.re "A") (re.union (str.to.re "B") (re.union (str.to.re "E") (re.union (str.to.re "H") (re.union (str.to.re "K") (re.union (str.to.re "L") (re.union (str.to.re "M") (re.union (str.to.re "P") (re.union (str.to.re "R") (re.union (str.to.re "S") (re.union (str.to.re "T") (re.union (str.to.re "W") (re.union (str.to.re "X") (str.to.re "Y"))))))))))))))))) (re.++ ((_ re.loop 0 6) (re.range "0" "9")) (re.opt (re.range "A" "D")))) re.all))) (str.to.re "\x00"))))
;match[1]!==null
(assert (str.in.re ((_ str.extract 1) var0 (re.++ (re.*? re.allchar) (re.++ (re.++ ((_ re.capture 1) (re.union (re.union (re.union (re.union (re.union (re.union (re.union (re.union (re.union (re.union (re.union (re.++ (re.union (str.to.re "A") (re.union (str.to.re "E") (re.union (str.to.re "H") (re.union (str.to.re "K") (re.union (str.to.re "L") (re.union (str.to.re "T") (str.to.re "Y"))))))) (re.union (str.to.re "A") (re.union (str.to.re "B") (re.union (str.to.re "E") (re.union (str.to.re "H") (re.union (str.to.re "K") (re.union (str.to.re "L") (re.union (str.to.re "M") (re.union (str.to.re "P") (re.union (str.to.re "R") (re.union (str.to.re "S") (re.union (str.to.re "T") (re.union (str.to.re "W") (re.union (str.to.re "X") (re.union (str.to.re "Y") (str.to.re "Z")))))))))))))))) (re.++ (str.to.re "B") (re.union (str.to.re "A") (re.union (str.to.re "B") (re.union (str.to.re "E") (re.union (str.to.re "H") (re.union (str.to.re "K") (re.union (str.to.re "L") (re.union (str.to.re "M") (str.to.re "T")))))))))) (re.++ (str.to.re "C") (re.union (str.to.re "A") (re.union (str.to.re "B") (re.union (str.to.re "E") (re.union (str.to.re "H") (re.union (str.to.re "K") (re.union (str.to.re "L") (str.to.re "R"))))))))) (re.++ (str.to.re "G") (str.to.re "Y"))) (re.++ (re.union (str.to.re "J") (str.to.re "S")) (re.union (str.to.re "A") (re.union (str.to.re "B") (re.union (str.to.re "C") (re.union (str.to.re "E") (re.union (str.to.re "G") (re.union (str.to.re "H") (re.union (str.to.re "J") (re.union (str.to.re "K") (re.union (str.to.re "L") (re.union (str.to.re "M") (re.union (str.to.re "N") (re.union (str.to.re "P") (re.union (str.to.re "R") (re.union (str.to.re "S") (re.union (str.to.re "T") (re.union (str.to.re "W") (re.union (str.to.re "X") (re.union (str.to.re "Y") (str.to.re "Z"))))))))))))))))))))) (re.++ (str.to.re "M") (re.union (str.to.re "A") (re.union (str.to.re "W") (str.to.re "X"))))) (re.++ (str.to.re "N") (re.union (str.to.re "A") (re.union (str.to.re "B") (re.union (str.to.re "E") (re.union (str.to.re "H") (re.union (str.to.re "L") (re.union (str.to.re "M") (re.union (str.to.re "P") (re.union (str.to.re "R") (re.union (str.to.re "S") (re.union (str.to.re "W") (re.union (str.to.re "X") (re.union (str.to.re "Y") (str.to.re "Z"))))))))))))))) (re.++ (str.to.re "O") (re.union (str.to.re "A") (re.union (str.to.re "B") (re.union (str.to.re "E") (re.union (str.to.re "H") (re.union (str.to.re "K") (re.union (str.to.re "L") (re.union (str.to.re "M") (re.union (str.to.re "P") (re.union (str.to.re "R") (re.union (str.to.re "S") (str.to.re "X"))))))))))))) (re.++ (str.to.re "P") (re.union (str.to.re "A") (re.union (str.to.re "B") (re.union (str.to.re "C") (re.union (str.to.re "E") (re.union (str.to.re "G") (re.union (str.to.re "H") (re.union (str.to.re "J") (re.union (str.to.re "K") (re.union (str.to.re "L") (re.union (str.to.re "M") (re.union (str.to.re "N") (re.union (str.to.re "P") (re.union (str.to.re "R") (re.union (str.to.re "S") (re.union (str.to.re "T") (re.union (str.to.re "W") (re.union (str.to.re "X") (str.to.re "Y")))))))))))))))))))) (re.++ (str.to.re "R") (re.union (str.to.re "A") (re.union (str.to.re "B") (re.union (str.to.re "E") (re.union (str.to.re "H") (re.union (str.to.re "K") (re.union (str.to.re "M") (re.union (str.to.re "P") (re.union (str.to.re "R") (re.union (str.to.re "S") (re.union (str.to.re "T") (re.union (str.to.re "W") (re.union (str.to.re "X") (re.union (str.to.re "Y") (str.to.re "Z")))))))))))))))) (re.++ (str.to.re "W") (re.union (str.to.re "A") (re.union (str.to.re "B") (re.union (str.to.re "E") (re.union (str.to.re "K") (re.union (str.to.re "L") (re.union (str.to.re "M") (str.to.re "P"))))))))) (re.++ (str.to.re "Z") (re.union (str.to.re "A") (re.union (str.to.re "B") (re.union (str.to.re "E") (re.union (str.to.re "H") (re.union (str.to.re "K") (re.union (str.to.re "L") (re.union (str.to.re "M") (re.union (str.to.re "P") (re.union (str.to.re "R") (re.union (str.to.re "S") (re.union (str.to.re "T") (re.union (str.to.re "W") (re.union (str.to.re "X") (str.to.re "Y"))))))))))))))))) (re.++ ((_ re.loop 0 6) (re.range "0" "9")) (re.opt (re.range "A" "D")))) re.all))) (re.++ re.all(re.+ (re.range "a" "z")) re.all) ))
;/[a-z]+/.test(match[1]) == true
(check-sat)
(get-model)
(pop 1)
(push 1)
(assert (str.in.re var0 (re.* (re.range "\x01" "\xff"))))
(assert (str.in.re var0 (re.++ (re.*? re.allchar) (re.++ (re.++ ((_ re.capture 1) (re.union (re.union (re.union (re.union (re.union (re.union (re.union (re.union (re.union (re.union (re.union (re.++ (re.union (str.to.re "A") (re.union (str.to.re "E") (re.union (str.to.re "H") (re.union (str.to.re "K") (re.union (str.to.re "L") (re.union (str.to.re "T") (str.to.re "Y"))))))) (re.union (str.to.re "A") (re.union (str.to.re "B") (re.union (str.to.re "E") (re.union (str.to.re "H") (re.union (str.to.re "K") (re.union (str.to.re "L") (re.union (str.to.re "M") (re.union (str.to.re "P") (re.union (str.to.re "R") (re.union (str.to.re "S") (re.union (str.to.re "T") (re.union (str.to.re "W") (re.union (str.to.re "X") (re.union (str.to.re "Y") (str.to.re "Z")))))))))))))))) (re.++ (str.to.re "B") (re.union (str.to.re "A") (re.union (str.to.re "B") (re.union (str.to.re "E") (re.union (str.to.re "H") (re.union (str.to.re "K") (re.union (str.to.re "L") (re.union (str.to.re "M") (str.to.re "T")))))))))) (re.++ (str.to.re "C") (re.union (str.to.re "A") (re.union (str.to.re "B") (re.union (str.to.re "E") (re.union (str.to.re "H") (re.union (str.to.re "K") (re.union (str.to.re "L") (str.to.re "R"))))))))) (re.++ (str.to.re "G") (str.to.re "Y"))) (re.++ (re.union (str.to.re "J") (str.to.re "S")) (re.union (str.to.re "A") (re.union (str.to.re "B") (re.union (str.to.re "C") (re.union (str.to.re "E") (re.union (str.to.re "G") (re.union (str.to.re "H") (re.union (str.to.re "J") (re.union (str.to.re "K") (re.union (str.to.re "L") (re.union (str.to.re "M") (re.union (str.to.re "N") (re.union (str.to.re "P") (re.union (str.to.re "R") (re.union (str.to.re "S") (re.union (str.to.re "T") (re.union (str.to.re "W") (re.union (str.to.re "X") (re.union (str.to.re "Y") (str.to.re "Z"))))))))))))))))))))) (re.++ (str.to.re "M") (re.union (str.to.re "A") (re.union (str.to.re "W") (str.to.re "X"))))) (re.++ (str.to.re "N") (re.union (str.to.re "A") (re.union (str.to.re "B") (re.union (str.to.re "E") (re.union (str.to.re "H") (re.union (str.to.re "L") (re.union (str.to.re "M") (re.union (str.to.re "P") (re.union (str.to.re "R") (re.union (str.to.re "S") (re.union (str.to.re "W") (re.union (str.to.re "X") (re.union (str.to.re "Y") (str.to.re "Z"))))))))))))))) (re.++ (str.to.re "O") (re.union (str.to.re "A") (re.union (str.to.re "B") (re.union (str.to.re "E") (re.union (str.to.re "H") (re.union (str.to.re "K") (re.union (str.to.re "L") (re.union (str.to.re "M") (re.union (str.to.re "P") (re.union (str.to.re "R") (re.union (str.to.re "S") (str.to.re "X"))))))))))))) (re.++ (str.to.re "P") (re.union (str.to.re "A") (re.union (str.to.re "B") (re.union (str.to.re "C") (re.union (str.to.re "E") (re.union (str.to.re "G") (re.union (str.to.re "H") (re.union (str.to.re "J") (re.union (str.to.re "K") (re.union (str.to.re "L") (re.union (str.to.re "M") (re.union (str.to.re "N") (re.union (str.to.re "P") (re.union (str.to.re "R") (re.union (str.to.re "S") (re.union (str.to.re "T") (re.union (str.to.re "W") (re.union (str.to.re "X") (str.to.re "Y")))))))))))))))))))) (re.++ (str.to.re "R") (re.union (str.to.re "A") (re.union (str.to.re "B") (re.union (str.to.re "E") (re.union (str.to.re "H") (re.union (str.to.re "K") (re.union (str.to.re "M") (re.union (str.to.re "P") (re.union (str.to.re "R") (re.union (str.to.re "S") (re.union (str.to.re "T") (re.union (str.to.re "W") (re.union (str.to.re "X") (re.union (str.to.re "Y") (str.to.re "Z")))))))))))))))) (re.++ (str.to.re "W") (re.union (str.to.re "A") (re.union (str.to.re "B") (re.union (str.to.re "E") (re.union (str.to.re "K") (re.union (str.to.re "L") (re.union (str.to.re "M") (str.to.re "P"))))))))) (re.++ (str.to.re "Z") (re.union (str.to.re "A") (re.union (str.to.re "B") (re.union (str.to.re "E") (re.union (str.to.re "H") (re.union (str.to.re "K") (re.union (str.to.re "L") (re.union (str.to.re "M") (re.union (str.to.re "P") (re.union (str.to.re "R") (re.union (str.to.re "S") (re.union (str.to.re "T") (re.union (str.to.re "W") (re.union (str.to.re "X") (str.to.re "Y"))))))))))))))))) (re.++ ((_ re.loop 0 6) (re.range "0" "9")) (re.opt (re.range "A" "D")))) re.all))))	; match!==null
(assert (not (str.in.re ((_ str.extract 1) var0 (re.++ (re.*? re.allchar) (re.++ (re.++ ((_ re.capture 1) (re.union (re.union (re.union (re.union (re.union (re.union (re.union (re.union (re.union (re.union (re.union (re.++ (re.union (str.to.re "A") (re.union (str.to.re "E") (re.union (str.to.re "H") (re.union (str.to.re "K") (re.union (str.to.re "L") (re.union (str.to.re "T") (str.to.re "Y"))))))) (re.union (str.to.re "A") (re.union (str.to.re "B") (re.union (str.to.re "E") (re.union (str.to.re "H") (re.union (str.to.re "K") (re.union (str.to.re "L") (re.union (str.to.re "M") (re.union (str.to.re "P") (re.union (str.to.re "R") (re.union (str.to.re "S") (re.union (str.to.re "T") (re.union (str.to.re "W") (re.union (str.to.re "X") (re.union (str.to.re "Y") (str.to.re "Z")))))))))))))))) (re.++ (str.to.re "B") (re.union (str.to.re "A") (re.union (str.to.re "B") (re.union (str.to.re "E") (re.union (str.to.re "H") (re.union (str.to.re "K") (re.union (str.to.re "L") (re.union (str.to.re "M") (str.to.re "T")))))))))) (re.++ (str.to.re "C") (re.union (str.to.re "A") (re.union (str.to.re "B") (re.union (str.to.re "E") (re.union (str.to.re "H") (re.union (str.to.re "K") (re.union (str.to.re "L") (str.to.re "R"))))))))) (re.++ (str.to.re "G") (str.to.re "Y"))) (re.++ (re.union (str.to.re "J") (str.to.re "S")) (re.union (str.to.re "A") (re.union (str.to.re "B") (re.union (str.to.re "C") (re.union (str.to.re "E") (re.union (str.to.re "G") (re.union (str.to.re "H") (re.union (str.to.re "J") (re.union (str.to.re "K") (re.union (str.to.re "L") (re.union (str.to.re "M") (re.union (str.to.re "N") (re.union (str.to.re "P") (re.union (str.to.re "R") (re.union (str.to.re "S") (re.union (str.to.re "T") (re.union (str.to.re "W") (re.union (str.to.re "X") (re.union (str.to.re "Y") (str.to.re "Z"))))))))))))))))))))) (re.++ (str.to.re "M") (re.union (str.to.re "A") (re.union (str.to.re "W") (str.to.re "X"))))) (re.++ (str.to.re "N") (re.union (str.to.re "A") (re.union (str.to.re "B") (re.union (str.to.re "E") (re.union (str.to.re "H") (re.union (str.to.re "L") (re.union (str.to.re "M") (re.union (str.to.re "P") (re.union (str.to.re "R") (re.union (str.to.re "S") (re.union (str.to.re "W") (re.union (str.to.re "X") (re.union (str.to.re "Y") (str.to.re "Z"))))))))))))))) (re.++ (str.to.re "O") (re.union (str.to.re "A") (re.union (str.to.re "B") (re.union (str.to.re "E") (re.union (str.to.re "H") (re.union (str.to.re "K") (re.union (str.to.re "L") (re.union (str.to.re "M") (re.union (str.to.re "P") (re.union (str.to.re "R") (re.union (str.to.re "S") (str.to.re "X"))))))))))))) (re.++ (str.to.re "P") (re.union (str.to.re "A") (re.union (str.to.re "B") (re.union (str.to.re "C") (re.union (str.to.re "E") (re.union (str.to.re "G") (re.union (str.to.re "H") (re.union (str.to.re "J") (re.union (str.to.re "K") (re.union (str.to.re "L") (re.union (str.to.re "M") (re.union (str.to.re "N") (re.union (str.to.re "P") (re.union (str.to.re "R") (re.union (str.to.re "S") (re.union (str.to.re "T") (re.union (str.to.re "W") (re.union (str.to.re "X") (str.to.re "Y")))))))))))))))))))) (re.++ (str.to.re "R") (re.union (str.to.re "A") (re.union (str.to.re "B") (re.union (str.to.re "E") (re.union (str.to.re "H") (re.union (str.to.re "K") (re.union (str.to.re "M") (re.union (str.to.re "P") (re.union (str.to.re "R") (re.union (str.to.re "S") (re.union (str.to.re "T") (re.union (str.to.re "W") (re.union (str.to.re "X") (re.union (str.to.re "Y") (str.to.re "Z")))))))))))))))) (re.++ (str.to.re "W") (re.union (str.to.re "A") (re.union (str.to.re "B") (re.union (str.to.re "E") (re.union (str.to.re "K") (re.union (str.to.re "L") (re.union (str.to.re "M") (str.to.re "P"))))))))) (re.++ (str.to.re "Z") (re.union (str.to.re "A") (re.union (str.to.re "B") (re.union (str.to.re "E") (re.union (str.to.re "H") (re.union (str.to.re "K") (re.union (str.to.re "L") (re.union (str.to.re "M") (re.union (str.to.re "P") (re.union (str.to.re "R") (re.union (str.to.re "S") (re.union (str.to.re "T") (re.union (str.to.re "W") (re.union (str.to.re "X") (str.to.re "Y"))))))))))))))))) (re.++ ((_ re.loop 0 6) (re.range "0" "9")) (re.opt (re.range "A" "D")))) re.all))) (str.to.re "\x00"))))	
;match[1]!==null
(assert (not (str.in.re ((_ str.extract 1) var0 (re.++ (re.*? re.allchar) (re.++ (re.++ ((_ re.capture 1) (re.union (re.union (re.union (re.union (re.union (re.union (re.union (re.union (re.union (re.union (re.union (re.++ (re.union (str.to.re "A") (re.union (str.to.re "E") (re.union (str.to.re "H") (re.union (str.to.re "K") (re.union (str.to.re "L") (re.union (str.to.re "T") (str.to.re "Y"))))))) (re.union (str.to.re "A") (re.union (str.to.re "B") (re.union (str.to.re "E") (re.union (str.to.re "H") (re.union (str.to.re "K") (re.union (str.to.re "L") (re.union (str.to.re "M") (re.union (str.to.re "P") (re.union (str.to.re "R") (re.union (str.to.re "S") (re.union (str.to.re "T") (re.union (str.to.re "W") (re.union (str.to.re "X") (re.union (str.to.re "Y") (str.to.re "Z")))))))))))))))) (re.++ (str.to.re "B") (re.union (str.to.re "A") (re.union (str.to.re "B") (re.union (str.to.re "E") (re.union (str.to.re "H") (re.union (str.to.re "K") (re.union (str.to.re "L") (re.union (str.to.re "M") (str.to.re "T")))))))))) (re.++ (str.to.re "C") (re.union (str.to.re "A") (re.union (str.to.re "B") (re.union (str.to.re "E") (re.union (str.to.re "H") (re.union (str.to.re "K") (re.union (str.to.re "L") (str.to.re "R"))))))))) (re.++ (str.to.re "G") (str.to.re "Y"))) (re.++ (re.union (str.to.re "J") (str.to.re "S")) (re.union (str.to.re "A") (re.union (str.to.re "B") (re.union (str.to.re "C") (re.union (str.to.re "E") (re.union (str.to.re "G") (re.union (str.to.re "H") (re.union (str.to.re "J") (re.union (str.to.re "K") (re.union (str.to.re "L") (re.union (str.to.re "M") (re.union (str.to.re "N") (re.union (str.to.re "P") (re.union (str.to.re "R") (re.union (str.to.re "S") (re.union (str.to.re "T") (re.union (str.to.re "W") (re.union (str.to.re "X") (re.union (str.to.re "Y") (str.to.re "Z"))))))))))))))))))))) (re.++ (str.to.re "M") (re.union (str.to.re "A") (re.union (str.to.re "W") (str.to.re "X"))))) (re.++ (str.to.re "N") (re.union (str.to.re "A") (re.union (str.to.re "B") (re.union (str.to.re "E") (re.union (str.to.re "H") (re.union (str.to.re "L") (re.union (str.to.re "M") (re.union (str.to.re "P") (re.union (str.to.re "R") (re.union (str.to.re "S") (re.union (str.to.re "W") (re.union (str.to.re "X") (re.union (str.to.re "Y") (str.to.re "Z"))))))))))))))) (re.++ (str.to.re "O") (re.union (str.to.re "A") (re.union (str.to.re "B") (re.union (str.to.re "E") (re.union (str.to.re "H") (re.union (str.to.re "K") (re.union (str.to.re "L") (re.union (str.to.re "M") (re.union (str.to.re "P") (re.union (str.to.re "R") (re.union (str.to.re "S") (str.to.re "X"))))))))))))) (re.++ (str.to.re "P") (re.union (str.to.re "A") (re.union (str.to.re "B") (re.union (str.to.re "C") (re.union (str.to.re "E") (re.union (str.to.re "G") (re.union (str.to.re "H") (re.union (str.to.re "J") (re.union (str.to.re "K") (re.union (str.to.re "L") (re.union (str.to.re "M") (re.union (str.to.re "N") (re.union (str.to.re "P") (re.union (str.to.re "R") (re.union (str.to.re "S") (re.union (str.to.re "T") (re.union (str.to.re "W") (re.union (str.to.re "X") (str.to.re "Y")))))))))))))))))))) (re.++ (str.to.re "R") (re.union (str.to.re "A") (re.union (str.to.re "B") (re.union (str.to.re "E") (re.union (str.to.re "H") (re.union (str.to.re "K") (re.union (str.to.re "M") (re.union (str.to.re "P") (re.union (str.to.re "R") (re.union (str.to.re "S") (re.union (str.to.re "T") (re.union (str.to.re "W") (re.union (str.to.re "X") (re.union (str.to.re "Y") (str.to.re "Z")))))))))))))))) (re.++ (str.to.re "W") (re.union (str.to.re "A") (re.union (str.to.re "B") (re.union (str.to.re "E") (re.union (str.to.re "K") (re.union (str.to.re "L") (re.union (str.to.re "M") (str.to.re "P"))))))))) (re.++ (str.to.re "Z") (re.union (str.to.re "A") (re.union (str.to.re "B") (re.union (str.to.re "E") (re.union (str.to.re "H") (re.union (str.to.re "K") (re.union (str.to.re "L") (re.union (str.to.re "M") (re.union (str.to.re "P") (re.union (str.to.re "R") (re.union (str.to.re "S") (re.union (str.to.re "T") (re.union (str.to.re "W") (re.union (str.to.re "X") (str.to.re "Y"))))))))))))))))) (re.++ ((_ re.loop 0 6) (re.range "0" "9")) (re.opt (re.range "A" "D")))) re.all))) (re.++ re.all(re.+ (re.range "a" "z")) re.all) )))
;/[a-z]+/.test(match[1]) == false	
(check-sat)
(get-model)
(pop 1)
(push 1)
(assert (str.in.re var0 (re.* (re.range "\x01" "\xff"))))
(assert (str.in.re var0 (re.++ (re.*? re.allchar) (re.++ (re.++ ((_ re.capture 1) (re.union (re.union (re.union (re.union (re.union (re.union (re.union (re.union (re.union (re.union (re.union (re.++ (re.union (str.to.re "A") (re.union (str.to.re "E") (re.union (str.to.re "H") (re.union (str.to.re "K") (re.union (str.to.re "L") (re.union (str.to.re "T") (str.to.re "Y"))))))) (re.union (str.to.re "A") (re.union (str.to.re "B") (re.union (str.to.re "E") (re.union (str.to.re "H") (re.union (str.to.re "K") (re.union (str.to.re "L") (re.union (str.to.re "M") (re.union (str.to.re "P") (re.union (str.to.re "R") (re.union (str.to.re "S") (re.union (str.to.re "T") (re.union (str.to.re "W") (re.union (str.to.re "X") (re.union (str.to.re "Y") (str.to.re "Z")))))))))))))))) (re.++ (str.to.re "B") (re.union (str.to.re "A") (re.union (str.to.re "B") (re.union (str.to.re "E") (re.union (str.to.re "H") (re.union (str.to.re "K") (re.union (str.to.re "L") (re.union (str.to.re "M") (str.to.re "T")))))))))) (re.++ (str.to.re "C") (re.union (str.to.re "A") (re.union (str.to.re "B") (re.union (str.to.re "E") (re.union (str.to.re "H") (re.union (str.to.re "K") (re.union (str.to.re "L") (str.to.re "R"))))))))) (re.++ (str.to.re "G") (str.to.re "Y"))) (re.++ (re.union (str.to.re "J") (str.to.re "S")) (re.union (str.to.re "A") (re.union (str.to.re "B") (re.union (str.to.re "C") (re.union (str.to.re "E") (re.union (str.to.re "G") (re.union (str.to.re "H") (re.union (str.to.re "J") (re.union (str.to.re "K") (re.union (str.to.re "L") (re.union (str.to.re "M") (re.union (str.to.re "N") (re.union (str.to.re "P") (re.union (str.to.re "R") (re.union (str.to.re "S") (re.union (str.to.re "T") (re.union (str.to.re "W") (re.union (str.to.re "X") (re.union (str.to.re "Y") (str.to.re "Z"))))))))))))))))))))) (re.++ (str.to.re "M") (re.union (str.to.re "A") (re.union (str.to.re "W") (str.to.re "X"))))) (re.++ (str.to.re "N") (re.union (str.to.re "A") (re.union (str.to.re "B") (re.union (str.to.re "E") (re.union (str.to.re "H") (re.union (str.to.re "L") (re.union (str.to.re "M") (re.union (str.to.re "P") (re.union (str.to.re "R") (re.union (str.to.re "S") (re.union (str.to.re "W") (re.union (str.to.re "X") (re.union (str.to.re "Y") (str.to.re "Z"))))))))))))))) (re.++ (str.to.re "O") (re.union (str.to.re "A") (re.union (str.to.re "B") (re.union (str.to.re "E") (re.union (str.to.re "H") (re.union (str.to.re "K") (re.union (str.to.re "L") (re.union (str.to.re "M") (re.union (str.to.re "P") (re.union (str.to.re "R") (re.union (str.to.re "S") (str.to.re "X"))))))))))))) (re.++ (str.to.re "P") (re.union (str.to.re "A") (re.union (str.to.re "B") (re.union (str.to.re "C") (re.union (str.to.re "E") (re.union (str.to.re "G") (re.union (str.to.re "H") (re.union (str.to.re "J") (re.union (str.to.re "K") (re.union (str.to.re "L") (re.union (str.to.re "M") (re.union (str.to.re "N") (re.union (str.to.re "P") (re.union (str.to.re "R") (re.union (str.to.re "S") (re.union (str.to.re "T") (re.union (str.to.re "W") (re.union (str.to.re "X") (str.to.re "Y")))))))))))))))))))) (re.++ (str.to.re "R") (re.union (str.to.re "A") (re.union (str.to.re "B") (re.union (str.to.re "E") (re.union (str.to.re "H") (re.union (str.to.re "K") (re.union (str.to.re "M") (re.union (str.to.re "P") (re.union (str.to.re "R") (re.union (str.to.re "S") (re.union (str.to.re "T") (re.union (str.to.re "W") (re.union (str.to.re "X") (re.union (str.to.re "Y") (str.to.re "Z")))))))))))))))) (re.++ (str.to.re "W") (re.union (str.to.re "A") (re.union (str.to.re "B") (re.union (str.to.re "E") (re.union (str.to.re "K") (re.union (str.to.re "L") (re.union (str.to.re "M") (str.to.re "P"))))))))) (re.++ (str.to.re "Z") (re.union (str.to.re "A") (re.union (str.to.re "B") (re.union (str.to.re "E") (re.union (str.to.re "H") (re.union (str.to.re "K") (re.union (str.to.re "L") (re.union (str.to.re "M") (re.union (str.to.re "P") (re.union (str.to.re "R") (re.union (str.to.re "S") (re.union (str.to.re "T") (re.union (str.to.re "W") (re.union (str.to.re "X") (str.to.re "Y"))))))))))))))))) (re.++ ((_ re.loop 0 6) (re.range "0" "9")) (re.opt (re.range "A" "D")))) re.all))))	; match!==null
(assert (str.in.re ((_ str.extract 1) var0 (re.++ (re.*? re.allchar) (re.++ (re.++ ((_ re.capture 1) (re.union (re.union (re.union (re.union (re.union (re.union (re.union (re.union (re.union (re.union (re.union (re.++ (re.union (str.to.re "A") (re.union (str.to.re "E") (re.union (str.to.re "H") (re.union (str.to.re "K") (re.union (str.to.re "L") (re.union (str.to.re "T") (str.to.re "Y"))))))) (re.union (str.to.re "A") (re.union (str.to.re "B") (re.union (str.to.re "E") (re.union (str.to.re "H") (re.union (str.to.re "K") (re.union (str.to.re "L") (re.union (str.to.re "M") (re.union (str.to.re "P") (re.union (str.to.re "R") (re.union (str.to.re "S") (re.union (str.to.re "T") (re.union (str.to.re "W") (re.union (str.to.re "X") (re.union (str.to.re "Y") (str.to.re "Z")))))))))))))))) (re.++ (str.to.re "B") (re.union (str.to.re "A") (re.union (str.to.re "B") (re.union (str.to.re "E") (re.union (str.to.re "H") (re.union (str.to.re "K") (re.union (str.to.re "L") (re.union (str.to.re "M") (str.to.re "T")))))))))) (re.++ (str.to.re "C") (re.union (str.to.re "A") (re.union (str.to.re "B") (re.union (str.to.re "E") (re.union (str.to.re "H") (re.union (str.to.re "K") (re.union (str.to.re "L") (str.to.re "R"))))))))) (re.++ (str.to.re "G") (str.to.re "Y"))) (re.++ (re.union (str.to.re "J") (str.to.re "S")) (re.union (str.to.re "A") (re.union (str.to.re "B") (re.union (str.to.re "C") (re.union (str.to.re "E") (re.union (str.to.re "G") (re.union (str.to.re "H") (re.union (str.to.re "J") (re.union (str.to.re "K") (re.union (str.to.re "L") (re.union (str.to.re "M") (re.union (str.to.re "N") (re.union (str.to.re "P") (re.union (str.to.re "R") (re.union (str.to.re "S") (re.union (str.to.re "T") (re.union (str.to.re "W") (re.union (str.to.re "X") (re.union (str.to.re "Y") (str.to.re "Z"))))))))))))))))))))) (re.++ (str.to.re "M") (re.union (str.to.re "A") (re.union (str.to.re "W") (str.to.re "X"))))) (re.++ (str.to.re "N") (re.union (str.to.re "A") (re.union (str.to.re "B") (re.union (str.to.re "E") (re.union (str.to.re "H") (re.union (str.to.re "L") (re.union (str.to.re "M") (re.union (str.to.re "P") (re.union (str.to.re "R") (re.union (str.to.re "S") (re.union (str.to.re "W") (re.union (str.to.re "X") (re.union (str.to.re "Y") (str.to.re "Z"))))))))))))))) (re.++ (str.to.re "O") (re.union (str.to.re "A") (re.union (str.to.re "B") (re.union (str.to.re "E") (re.union (str.to.re "H") (re.union (str.to.re "K") (re.union (str.to.re "L") (re.union (str.to.re "M") (re.union (str.to.re "P") (re.union (str.to.re "R") (re.union (str.to.re "S") (str.to.re "X"))))))))))))) (re.++ (str.to.re "P") (re.union (str.to.re "A") (re.union (str.to.re "B") (re.union (str.to.re "C") (re.union (str.to.re "E") (re.union (str.to.re "G") (re.union (str.to.re "H") (re.union (str.to.re "J") (re.union (str.to.re "K") (re.union (str.to.re "L") (re.union (str.to.re "M") (re.union (str.to.re "N") (re.union (str.to.re "P") (re.union (str.to.re "R") (re.union (str.to.re "S") (re.union (str.to.re "T") (re.union (str.to.re "W") (re.union (str.to.re "X") (str.to.re "Y")))))))))))))))))))) (re.++ (str.to.re "R") (re.union (str.to.re "A") (re.union (str.to.re "B") (re.union (str.to.re "E") (re.union (str.to.re "H") (re.union (str.to.re "K") (re.union (str.to.re "M") (re.union (str.to.re "P") (re.union (str.to.re "R") (re.union (str.to.re "S") (re.union (str.to.re "T") (re.union (str.to.re "W") (re.union (str.to.re "X") (re.union (str.to.re "Y") (str.to.re "Z")))))))))))))))) (re.++ (str.to.re "W") (re.union (str.to.re "A") (re.union (str.to.re "B") (re.union (str.to.re "E") (re.union (str.to.re "K") (re.union (str.to.re "L") (re.union (str.to.re "M") (str.to.re "P"))))))))) (re.++ (str.to.re "Z") (re.union (str.to.re "A") (re.union (str.to.re "B") (re.union (str.to.re "E") (re.union (str.to.re "H") (re.union (str.to.re "K") (re.union (str.to.re "L") (re.union (str.to.re "M") (re.union (str.to.re "P") (re.union (str.to.re "R") (re.union (str.to.re "S") (re.union (str.to.re "T") (re.union (str.to.re "W") (re.union (str.to.re "X") (str.to.re "Y"))))))))))))))))) (re.++ ((_ re.loop 0 6) (re.range "0" "9")) (re.opt (re.range "A" "D")))) re.all))) (str.to.re "\x00")))
;match[1]==null
(check-sat)
(get-model)
(pop 1)
(push 1)
(assert (str.in.re var0 (re.* (re.range "\x01" "\xff"))))
(assert (not (str.in.re var0 (re.++ (re.*? re.allchar) (re.++ (re.++ ((_ re.capture 1) (re.union (re.union (re.union (re.union (re.union (re.union (re.union (re.union (re.union (re.union (re.union (re.++ (re.union (str.to.re "A") (re.union (str.to.re "E") (re.union (str.to.re "H") (re.union (str.to.re "K") (re.union (str.to.re "L") (re.union (str.to.re "T") (str.to.re "Y"))))))) (re.union (str.to.re "A") (re.union (str.to.re "B") (re.union (str.to.re "E") (re.union (str.to.re "H") (re.union (str.to.re "K") (re.union (str.to.re "L") (re.union (str.to.re "M") (re.union (str.to.re "P") (re.union (str.to.re "R") (re.union (str.to.re "S") (re.union (str.to.re "T") (re.union (str.to.re "W") (re.union (str.to.re "X") (re.union (str.to.re "Y") (str.to.re "Z")))))))))))))))) (re.++ (str.to.re "B") (re.union (str.to.re "A") (re.union (str.to.re "B") (re.union (str.to.re "E") (re.union (str.to.re "H") (re.union (str.to.re "K") (re.union (str.to.re "L") (re.union (str.to.re "M") (str.to.re "T")))))))))) (re.++ (str.to.re "C") (re.union (str.to.re "A") (re.union (str.to.re "B") (re.union (str.to.re "E") (re.union (str.to.re "H") (re.union (str.to.re "K") (re.union (str.to.re "L") (str.to.re "R"))))))))) (re.++ (str.to.re "G") (str.to.re "Y"))) (re.++ (re.union (str.to.re "J") (str.to.re "S")) (re.union (str.to.re "A") (re.union (str.to.re "B") (re.union (str.to.re "C") (re.union (str.to.re "E") (re.union (str.to.re "G") (re.union (str.to.re "H") (re.union (str.to.re "J") (re.union (str.to.re "K") (re.union (str.to.re "L") (re.union (str.to.re "M") (re.union (str.to.re "N") (re.union (str.to.re "P") (re.union (str.to.re "R") (re.union (str.to.re "S") (re.union (str.to.re "T") (re.union (str.to.re "W") (re.union (str.to.re "X") (re.union (str.to.re "Y") (str.to.re "Z"))))))))))))))))))))) (re.++ (str.to.re "M") (re.union (str.to.re "A") (re.union (str.to.re "W") (str.to.re "X"))))) (re.++ (str.to.re "N") (re.union (str.to.re "A") (re.union (str.to.re "B") (re.union (str.to.re "E") (re.union (str.to.re "H") (re.union (str.to.re "L") (re.union (str.to.re "M") (re.union (str.to.re "P") (re.union (str.to.re "R") (re.union (str.to.re "S") (re.union (str.to.re "W") (re.union (str.to.re "X") (re.union (str.to.re "Y") (str.to.re "Z"))))))))))))))) (re.++ (str.to.re "O") (re.union (str.to.re "A") (re.union (str.to.re "B") (re.union (str.to.re "E") (re.union (str.to.re "H") (re.union (str.to.re "K") (re.union (str.to.re "L") (re.union (str.to.re "M") (re.union (str.to.re "P") (re.union (str.to.re "R") (re.union (str.to.re "S") (str.to.re "X"))))))))))))) (re.++ (str.to.re "P") (re.union (str.to.re "A") (re.union (str.to.re "B") (re.union (str.to.re "C") (re.union (str.to.re "E") (re.union (str.to.re "G") (re.union (str.to.re "H") (re.union (str.to.re "J") (re.union (str.to.re "K") (re.union (str.to.re "L") (re.union (str.to.re "M") (re.union (str.to.re "N") (re.union (str.to.re "P") (re.union (str.to.re "R") (re.union (str.to.re "S") (re.union (str.to.re "T") (re.union (str.to.re "W") (re.union (str.to.re "X") (str.to.re "Y")))))))))))))))))))) (re.++ (str.to.re "R") (re.union (str.to.re "A") (re.union (str.to.re "B") (re.union (str.to.re "E") (re.union (str.to.re "H") (re.union (str.to.re "K") (re.union (str.to.re "M") (re.union (str.to.re "P") (re.union (str.to.re "R") (re.union (str.to.re "S") (re.union (str.to.re "T") (re.union (str.to.re "W") (re.union (str.to.re "X") (re.union (str.to.re "Y") (str.to.re "Z")))))))))))))))) (re.++ (str.to.re "W") (re.union (str.to.re "A") (re.union (str.to.re "B") (re.union (str.to.re "E") (re.union (str.to.re "K") (re.union (str.to.re "L") (re.union (str.to.re "M") (str.to.re "P"))))))))) (re.++ (str.to.re "Z") (re.union (str.to.re "A") (re.union (str.to.re "B") (re.union (str.to.re "E") (re.union (str.to.re "H") (re.union (str.to.re "K") (re.union (str.to.re "L") (re.union (str.to.re "M") (re.union (str.to.re "P") (re.union (str.to.re "R") (re.union (str.to.re "S") (re.union (str.to.re "T") (re.union (str.to.re "W") (re.union (str.to.re "X") (str.to.re "Y"))))))))))))))))) (re.++ ((_ re.loop 0 6) (re.range "0" "9")) (re.opt (re.range "A" "D")))) re.all)))))	; match == null
(check-sat)
(get-model)
(pop 1)
(exit)
